nServices=10;
nDrivers=15;
nBuses=15;
maxBuses=12;
startingTime=[147 67 4 110 123 123 67 194 128 11];
durationTime=[12 21 29 21 29 27 21 16 26 26];
durationDist=[39 60 50 35 38 52 25 25 42 50];
passangers=[20 19 12 12 19 22 8 25 8 6];
capacity=[16 19 15 21 19 13 10 27 19 22 20 19 16 25 15];
costTime=[8 9 9 10 7 8 8 9 10 8 9 6 6 9 6];
costDist=[4 2 5 6 5 3 6 6 5 4 3 6 2 2 3];
maxTime=[53 52 52 59 59 43 46 31 23 36 28 48 38 47 49];
costBM=[5 7 6 6 8 6 5 7 5 6 5 8 6 5 7];
costEM=[10 10 9 10 11 8 10 8 10 8 8 8 9 8 8];
BM=[11 17 11 20 13 15 10 19 20 15 13 20 17 13 16];
